(set-info :smt-lib-version 2.6)
(set-logic QF_ALIA)
(set-info :notes "Adapted for Array Sum evaluation.
Base file: qlock.induction.21.smt2")
(set-info :source |
Unbounded version of the queue lock algorithm.
|)
(set-info :category "industrial")
(declare-fun x_0 () (Array Int Int))
(declare-fun x_1 () Int)
(declare-fun x_2 () Int)
(declare-fun x_3 () (Array Int Int))
(declare-fun x_4 () (Array Int Int))
(declare-fun x_5 () (Array Int Int))
(declare-fun x_6 () (Array Int Int))
(declare-fun x_7 () (Array Int Int))
(declare-fun x_8 () (Array Int Int))
(declare-fun x_9 () (Array Int Int))
(declare-fun x_10 () (Array Int Int))
(declare-fun x_11 () (Array Int Int))
(declare-fun x_12 () (Array Int Int))
(declare-fun x_13 () (Array Int Int))
(declare-fun x_14 () (Array Int Int))
(declare-fun x_15 () (Array Int Int))
(declare-fun x_16 () (Array Int Int))
(declare-fun x_17 () (Array Int Int))
(declare-fun x_18 () (Array Int Int))
(declare-fun x_19 () (Array Int Int))
(declare-fun x_20 () (Array Int Int))
(declare-fun x_21 () (Array Int Int))
(declare-fun x_22 () (Array Int Int))
(declare-fun x_23 () (Array Int Int))
(declare-fun x_24 () Int)
(declare-fun x_25 () Int)
(declare-fun x_26 () (Array Int Int))
(declare-fun x_27 () Int)
(declare-fun x_28 () Bool)
(declare-fun x_29 () Bool)
(declare-fun x_30 () Int)
(declare-fun x_31 () Int)
(declare-fun x_32 () Int)
(declare-fun x_33 () Int)
(declare-fun x_34 () Int)
(declare-fun x_35 () Int)
(declare-fun x_36 () Int)
(declare-fun x_37 () Int)
(declare-fun x_38 () Int)
(declare-fun x_39 () Int)
(declare-fun x_40 () Int)
(declare-fun x_41 () Int)
(declare-fun x_42 () (Array Int Int))
(declare-fun x_43 () Int)
(declare-fun x_44 () Bool)
(declare-fun x_45 () Int)
(declare-fun x_46 () Int)
(declare-fun x_47 () Int)
(declare-fun x_48 () Int)
(declare-fun x_49 () Int)
(declare-fun x_50 () Int)
(declare-fun x_51 () Int)
(declare-fun x_52 () Int)
(declare-fun x_53 () Int)
(declare-fun x_54 () Int)
(declare-fun x_55 () (Array Int Int))
(declare-fun x_56 () Int)
(declare-fun x_57 () Bool)
(declare-fun x_58 () Int)
(declare-fun x_59 () Int)
(declare-fun x_60 () Int)
(declare-fun x_61 () Int)
(declare-fun x_62 () Int)
(declare-fun x_63 () Int)
(declare-fun x_64 () Int)
(declare-fun x_65 () Int)
(declare-fun x_66 () Int)
(declare-fun x_67 () Int)
(declare-fun x_68 () (Array Int Int))
(declare-fun x_69 () Int)
(declare-fun x_70 () Bool)
(declare-fun x_71 () Int)
(declare-fun x_72 () Int)
(declare-fun x_73 () Int)
(declare-fun x_74 () Int)
(declare-fun x_75 () Int)
(declare-fun x_76 () Int)
(declare-fun x_77 () Int)
(declare-fun x_78 () Int)
(declare-fun x_79 () Int)
(declare-fun x_80 () Int)
(declare-fun x_81 () (Array Int Int))
(declare-fun x_82 () Int)
(declare-fun x_83 () Bool)
(declare-fun x_84 () Int)
(declare-fun x_85 () Int)
(declare-fun x_86 () Int)
(declare-fun x_87 () Int)
(declare-fun x_88 () Int)
(declare-fun x_89 () Int)
(declare-fun x_90 () Int)
(declare-fun x_91 () Int)
(declare-fun x_92 () Int)
(declare-fun x_93 () Int)
(declare-fun x_94 () (Array Int Int))
(declare-fun x_95 () Int)
(declare-fun x_96 () Bool)
(declare-fun x_97 () Int)
(declare-fun x_98 () Int)
(declare-fun x_99 () Int)
(declare-fun x_100 () Int)
(declare-fun x_101 () Int)
(declare-fun x_102 () Int)
(declare-fun x_103 () Int)
(declare-fun x_104 () Int)
(declare-fun x_105 () Int)
(declare-fun x_106 () Int)
(declare-fun x_107 () (Array Int Int))
(declare-fun x_108 () Int)
(declare-fun x_109 () Bool)
(declare-fun x_110 () Int)
(declare-fun x_111 () Int)
(declare-fun x_112 () Int)
(declare-fun x_113 () Int)
(declare-fun x_114 () Int)
(declare-fun x_115 () Int)
(declare-fun x_116 () Int)
(declare-fun x_117 () Int)
(declare-fun x_118 () Int)
(declare-fun x_119 () Int)
(declare-fun x_120 () (Array Int Int))
(declare-fun x_121 () Int)
(declare-fun x_122 () Bool)
(declare-fun x_123 () Int)
(declare-fun x_124 () Int)
(declare-fun x_125 () Int)
(declare-fun x_126 () Int)
(declare-fun x_127 () Int)
(declare-fun x_128 () Int)
(declare-fun x_129 () Int)
(declare-fun x_130 () Int)
(declare-fun x_131 () Int)
(declare-fun x_132 () Int)
(declare-fun x_133 () (Array Int Int))
(declare-fun x_134 () Int)
(declare-fun x_135 () Bool)
(declare-fun x_136 () Int)
(declare-fun x_137 () Int)
(declare-fun x_138 () Int)
(declare-fun x_139 () Int)
(declare-fun x_140 () Int)
(declare-fun x_141 () Int)
(declare-fun x_142 () Int)
(declare-fun x_143 () Int)
(declare-fun x_144 () Int)
(declare-fun x_145 () Int)
(declare-fun x_146 () (Array Int Int))
(declare-fun x_147 () Int)
(declare-fun x_148 () Bool)
(declare-fun x_149 () Int)
(declare-fun x_150 () Int)
(declare-fun x_151 () Int)
(declare-fun x_152 () Int)
(declare-fun x_153 () Int)
(declare-fun x_154 () Int)
(declare-fun x_155 () Int)
(declare-fun x_156 () Int)
(declare-fun x_157 () Int)
(declare-fun x_158 () Int)
(declare-fun x_159 () (Array Int Int))
(declare-fun x_160 () Int)
(declare-fun x_161 () Bool)
(declare-fun x_162 () Int)
(declare-fun x_163 () Int)
(declare-fun x_164 () Int)
(declare-fun x_165 () Int)
(declare-fun x_166 () Int)
(declare-fun x_167 () Int)
(declare-fun x_168 () Int)
(declare-fun x_169 () Int)
(declare-fun x_170 () Int)
(declare-fun x_171 () Int)
(declare-fun x_172 () (Array Int Int))
(declare-fun x_173 () Int)
(declare-fun x_174 () Bool)
(declare-fun x_175 () Int)
(declare-fun x_176 () Int)
(declare-fun x_177 () Int)
(declare-fun x_178 () Int)
(declare-fun x_179 () Int)
(declare-fun x_180 () Int)
(declare-fun x_181 () Int)
(declare-fun x_182 () Int)
(declare-fun x_183 () Int)
(declare-fun x_184 () Int)
(declare-fun x_185 () (Array Int Int))
(declare-fun x_186 () Int)
(declare-fun x_187 () Bool)
(declare-fun x_188 () Int)
(declare-fun x_189 () Int)
(declare-fun x_190 () Int)
(declare-fun x_191 () Int)
(declare-fun x_192 () Int)
(declare-fun x_193 () Int)
(declare-fun x_194 () Int)
(declare-fun x_195 () Int)
(declare-fun x_196 () Int)
(declare-fun x_197 () Int)
(declare-fun x_198 () (Array Int Int))
(declare-fun x_199 () Int)
(declare-fun x_200 () Bool)
(declare-fun x_201 () Int)
(declare-fun x_202 () Int)
(declare-fun x_203 () Int)
(declare-fun x_204 () Int)
(declare-fun x_205 () Int)
(declare-fun x_206 () Int)
(declare-fun x_207 () Int)
(declare-fun x_208 () Int)
(declare-fun x_209 () Int)
(declare-fun x_210 () Int)
(declare-fun x_211 () (Array Int Int))
(declare-fun x_212 () Int)
(declare-fun x_213 () Bool)
(declare-fun x_214 () Int)
(declare-fun x_215 () Int)
(declare-fun x_216 () Int)
(declare-fun x_217 () Int)
(declare-fun x_218 () Int)
(declare-fun x_219 () Int)
(declare-fun x_220 () Int)
(declare-fun x_221 () Int)
(declare-fun x_222 () Int)
(declare-fun x_223 () Int)
(declare-fun x_224 () (Array Int Int))
(declare-fun x_225 () Int)
(declare-fun x_226 () Bool)
(declare-fun x_227 () Int)
(declare-fun x_228 () Int)
(declare-fun x_229 () Int)
(declare-fun x_230 () Int)
(declare-fun x_231 () Int)
(declare-fun x_232 () Int)
(declare-fun x_233 () Int)
(declare-fun x_234 () Int)
(declare-fun x_235 () Int)
(declare-fun x_236 () Int)
(declare-fun x_237 () (Array Int Int))
(declare-fun x_238 () Int)
(declare-fun x_239 () Bool)
(declare-fun x_240 () Int)
(declare-fun x_241 () Int)
(declare-fun x_242 () Int)
(declare-fun x_243 () Int)
(declare-fun x_244 () Int)
(declare-fun x_245 () Int)
(declare-fun x_246 () Int)
(declare-fun x_247 () Int)
(declare-fun x_248 () Int)
(declare-fun x_249 () Int)
(declare-fun x_250 () (Array Int Int))
(declare-fun x_251 () Int)
(declare-fun x_252 () Bool)
(declare-fun x_253 () Int)
(declare-fun x_254 () Int)
(declare-fun x_255 () Int)
(declare-fun x_256 () Int)
(declare-fun x_257 () Int)
(declare-fun x_258 () Int)
(declare-fun x_259 () Int)
(declare-fun x_260 () Int)
(declare-fun x_261 () Int)
(declare-fun x_262 () Int)
(declare-fun x_263 () (Array Int Int))
(declare-fun x_264 () Int)
(declare-fun x_265 () Bool)
(declare-fun x_266 () Int)
(declare-fun x_267 () Int)
(declare-fun x_268 () Int)
(declare-fun x_269 () Int)
(declare-fun x_270 () Int)
(declare-fun x_271 () Int)
(declare-fun x_272 () Int)
(declare-fun x_273 () Int)
(declare-fun x_274 () Int)
(declare-fun x_275 () Int)
(declare-fun x_276 () (Array Int Int))
(declare-fun x_277 () Int)
(declare-fun x_278 () Bool)
(declare-fun x_279 () Int)
(declare-fun x_280 () Int)
(declare-fun x_281 () Int)
(declare-fun x_282 () Int)
(declare-fun x_283 () Int)
(declare-fun x_284 () Int)
(declare-fun x_285 () Int)
(declare-fun x_286 () Int)
(declare-fun x_287 () Int)
(declare-fun x_288 () Int)
(declare-fun x_289 () (Array Int Int))
(declare-fun x_290 () Int)
(declare-fun x_291 () Bool)
(declare-fun x_292 () Int)
(declare-fun x_293 () Int)
(declare-fun x_294 () Int)
(declare-fun x_295 () Int)
(declare-fun x_296 () Int)
(declare-fun x_297 () (Array Int Int))
(declare-fun x_298 () Int)
(declare-fun x_299 () Int)
(declare-fun x_300 () Int)
(declare-fun x_301 () Int)
(declare-fun x_302 () Int)
(declare-fun x_303 () Int)
(declare-fun x_304 () Int)
(declare-fun x_305 () Int)
(declare-fun x_306 () Int)
(declare-fun x_307 () Int)
(declare-fun x_308 () Int)
(declare-fun x_309 () Int)
(declare-fun x_310 () Int)
(declare-fun x_311 () Int)
(declare-fun x_312 () Int)
(declare-fun x_313 () Int)
(declare-fun x_314 () Int)
(declare-fun x_315 () Int)
(declare-fun x_316 () Int)
(declare-fun x_317 () Int)
(declare-fun x_318 () Int)
(declare-fun x_319 () Int)
(declare-fun x_320 () Int)
(declare-fun x_321 () Int)
(declare-fun x_322 () Int)
(declare-fun x_323 () Int)
(declare-fun x_324 () Int)
(declare-fun x_325 () Int)
(declare-fun x_326 () Int)
(declare-fun x_327 () Int)
(declare-fun x_328 () Int)
(declare-fun x_329 () Int)
(declare-fun x_330 () Int)
(declare-fun x_331 () Int)
(declare-fun x_332 () Int)
(declare-fun x_333 () Int)
(declare-fun x_334 () Int)
(declare-fun x_335 () Int)
(declare-fun x_336 () Int)
(declare-fun x_337 () Int)
(declare-fun x_338 () Int)
(declare-fun x_339 () Int)
(declare-fun x_340 () Int)
(declare-fun x_341 () Int)
(declare-fun x_342 () Int)
(declare-fun x_343 () Int)
(declare-fun x_344 () Int)
(declare-fun x_345 () Int)
(declare-fun x_346 () Int)
(declare-fun x_347 () Int)
(declare-fun x_348 () Int)
(declare-fun x_349 () Int)
(declare-fun x_350 () Int)
(declare-fun x_351 () Int)
(declare-fun x_352 () Int)
(declare-fun x_353 () Int)
(declare-fun x_354 () Int)
(declare-fun x_355 () Int)
(declare-fun x_356 () Int)
(declare-fun x_357 () Int)
(declare-fun x_358 () Int)
(declare-fun x_359 () Int)
(declare-fun x_360 () Int)
(declare-fun x_361 () Int)
(declare-fun x_362 () Int)
(declare-fun x_363 () Int)
(declare-fun x_364 () Int)
(declare-fun x_365 () Int)
(declare-fun x_366 () Int)
(declare-fun x_367 () Int)
(declare-fun x_368 () Int)
(declare-fun x_369 () Int)
(declare-fun x_370 () Int)
(declare-fun x_371 () Int)
(declare-fun x_372 () Int)
(declare-fun x_373 () Int)
(declare-fun x_374 () Int)
(declare-fun x_375 () Int)
(declare-fun x_376 () Int)
(declare-fun x_377 () Int)
(declare-fun x_378 () Int)
(declare-fun x_379 () Int)
(declare-fun x_380 () Int)
(declare-fun x_381 () Int)
(declare-fun x_382 () Int)
(declare-fun x_383 () Int)
(declare-fun x_384 () Int)
(declare-fun x_385 () Int)
(declare-fun x_386 () Int)
(declare-fun x_387 () Int)
(declare-fun x_388 () Int)
(declare-fun x_389 () Int)
(declare-fun x_390 () Int)
(declare-fun x_391 () Int)
(declare-fun x_392 () Int)
(declare-fun x_393 () Int)
(declare-fun x_394 () Int)
(declare-fun x_395 () Int)
(declare-fun x_396 () Int)
(declare-fun x_397 () Int)
(declare-fun x_398 () Int)
(declare-fun x_399 () Int)
(declare-fun x_400 () Int)
(declare-fun x_401 () Int)
(declare-fun x_402 () Int)
(declare-fun x_403 () Int)
(declare-fun x_404 () Int)
(declare-fun x_405 () Int)
(declare-fun x_406 () Int)
(declare-fun x_407 () Int)
(declare-fun x_408 () Int)
(declare-fun x_409 () Int)
(declare-fun x_410 () Int)
(declare-fun x_411 () Int)
(declare-fun x_412 () Int)
(declare-fun x_413 () Int)
(declare-fun x_414 () Int)
(declare-fun x_415 () Int)
(declare-fun x_416 () Int)
(declare-fun x_417 () Int)
(declare-fun x_418 () Int)
(declare-fun x_419 () Int)
(declare-fun x_420 () Int)
(declare-fun x_421 () Int)
(declare-fun x_422 () Int)
(declare-fun x_423 () Int)
(declare-fun x_424 () Int)
(declare-fun x_425 () Int)
(declare-fun x_426 () Int)
(declare-fun x_427 () Int)
(declare-fun x_428 () Int)
(declare-fun x_429 () Int)
(assert (let ((?v_103 (= x_26 x_23)) (?v_100 (= x_27 x_24)) (?v_101 (= x_28 x_29)) (?v_104 (= x_30 x_31)) (?v_102 (not (<= x_31 x_24))) (?v_98 (= x_42 x_26)) (?v_95 (= x_43 x_27)) (?v_96 (= x_44 x_28)) (?v_99 (= x_45 x_30)) (?v_97 (not (<= x_30 x_27))) (?v_93 (= x_55 x_42)) (?v_90 (= x_56 x_43)) (?v_91 (= x_57 x_44)) (?v_94 (= x_58 x_45)) (?v_92 (not (<= x_45 x_43))) (?v_88 (= x_68 x_55)) (?v_85 (= x_69 x_56)) (?v_86 (= x_70 x_57)) (?v_89 (= x_71 x_58)) (?v_87 (not (<= x_58 x_56))) (?v_83 (= x_81 x_68)) (?v_80 (= x_82 x_69)) (?v_81 (= x_83 x_70)) (?v_84 (= x_84 x_71)) (?v_82 (not (<= x_71 x_69))) (?v_78 (= x_94 x_81)) (?v_75 (= x_95 x_82)) (?v_76 (= x_96 x_83)) (?v_79 (= x_97 x_84)) (?v_77 (not (<= x_84 x_82))) (?v_73 (= x_107 x_94)) (?v_70 (= x_108 x_95)) (?v_71 (= x_109 x_96)) (?v_74 (= x_110 x_97)) (?v_72 (not (<= x_97 x_95))) (?v_68 (= x_120 x_107)) (?v_65 (= x_121 x_108)) (?v_66 (= x_122 x_109)) (?v_69 (= x_123 x_110)) (?v_67 (not (<= x_110 x_108))) (?v_63 (= x_133 x_120)) (?v_60 (= x_134 x_121)) (?v_61 (= x_135 x_122)) (?v_64 (= x_136 x_123)) (?v_62 (not (<= x_123 x_121))) (?v_58 (= x_146 x_133)) (?v_55 (= x_147 x_134)) (?v_56 (= x_148 x_135)) (?v_59 (= x_149 x_136)) (?v_57 (not (<= x_136 x_134))) (?v_53 (= x_159 x_146)) (?v_50 (= x_160 x_147)) (?v_51 (= x_161 x_148)) (?v_54 (= x_162 x_149)) (?v_52 (not (<= x_149 x_147))) (?v_48 (= x_172 x_159)) (?v_45 (= x_173 x_160)) (?v_46 (= x_174 x_161)) (?v_49 (= x_175 x_162)) (?v_47 (not (<= x_162 x_160))) (?v_43 (= x_185 x_172)) (?v_40 (= x_186 x_173)) (?v_41 (= x_187 x_174)) (?v_44 (= x_188 x_175)) (?v_42 (not (<= x_175 x_173))) (?v_38 (= x_198 x_185)) (?v_35 (= x_199 x_186)) (?v_36 (= x_200 x_187)) (?v_39 (= x_201 x_188)) (?v_37 (not (<= x_188 x_186))) (?v_33 (= x_211 x_198)) (?v_30 (= x_212 x_199)) (?v_31 (= x_213 x_200)) (?v_34 (= x_214 x_201)) (?v_32 (not (<= x_201 x_199))) (?v_28 (= x_224 x_211)) (?v_25 (= x_225 x_212)) (?v_26 (= x_226 x_213)) (?v_29 (= x_227 x_214)) (?v_27 (not (<= x_214 x_212))) (?v_23 (= x_237 x_224)) (?v_20 (= x_238 x_225)) (?v_21 (= x_239 x_226)) (?v_24 (= x_240 x_227)) (?v_22 (not (<= x_227 x_225))) (?v_18 (= x_250 x_237)) (?v_15 (= x_251 x_238)) (?v_16 (= x_252 x_239)) (?v_19 (= x_253 x_240)) (?v_17 (not (<= x_240 x_238))) (?v_13 (= x_263 x_250)) (?v_10 (= x_264 x_251)) (?v_11 (= x_265 x_252)) (?v_14 (= x_266 x_253)) (?v_12 (not (<= x_253 x_251))) (?v_8 (= x_276 x_263)) (?v_5 (= x_277 x_264)) (?v_6 (= x_278 x_265)) (?v_9 (= x_279 x_266)) (?v_7 (not (<= x_266 x_264))) (?v_3 (= x_289 x_276)) (?v_0 (= x_290 x_277)) (?v_1 (= x_291 x_278)) (?v_4 (= x_292 x_279)) (?v_2 (not (<= x_279 x_277)))) (and (and (and (and (and (and (and (and (and (and (and (and (and (and (and (and (and (and (and (and (and (and (and (and (and (and (and (and (and (and (and (and (and (and (and (and (and (and (and (and (and (and (and (and (and (and (and (and (and (and (and (and (and (and (and (and (and (and (and (and (and (and (and (and (and (and (and (and (and (and (and (and (and (and (and (and (and (and (and (and (and (and (and (and (and (and (and (and (and (and (and (and (and (and (and (and (and (and (and (and (and (and (and (and (and (and (and (and (and (and (and (and (and (and (and (and (and (and (and (and (and (and (and (and (and (and (and (and (and (and (and (and (and (and (and (and (and (and (and (and (and (and (and (and (and (and (and (and (and (and (and (and (and (and (and (and (and (and (and (and (and (and (and (and (and (and (and (and (and (and (and (and (and (and (and (and (and (and (and (and (and (and (and (and (and (and (and (and (and (and (and (and (and (and (and (and (and (and (and (and (and (and (and (and (and (and (and (and (and (and (and (and (and (and (not (= x_2 x_1)) (= x_302 (select x_22 x_1))) (= x_303 (select x_22 x_2))) (or (not (= x_302 3)) (not (= x_303 3)))) (= x_304 (select x_21 x_1))) (= x_305 (select x_21 x_2))) (or (not (= x_304 3)) (not (= x_305 3)))) (= x_306 (select x_20 x_1))) (= x_307 (select x_20 x_2))) (or (not (= x_306 3)) (not (= x_307 3)))) (= x_308 (select x_19 x_1))) (= x_309 (select x_19 x_2))) (or (not (= x_308 3)) (not (= x_309 3)))) (= x_310 (select x_18 x_1))) (= x_311 (select x_18 x_2))) (or (not (= x_310 3)) (not (= x_311 3)))) (= x_312 (select x_17 x_1))) (= x_313 (select x_17 x_2))) (or (not (= x_312 3)) (not (= x_313 3)))) (= x_314 (select x_16 x_1))) (= x_315 (select x_16 x_2))) (or (not (= x_314 3)) (not (= x_315 3)))) (= x_316 (select x_15 x_1))) (= x_317 (select x_15 x_2))) (or (not (= x_316 3)) (not (= x_317 3)))) (= x_318 (select x_14 x_1))) (= x_319 (select x_14 x_2))) (or (not (= x_318 3)) (not (= x_319 3)))) (= x_320 (select x_13 x_1))) (= x_321 (select x_13 x_2))) (or (not (= x_320 3)) (not (= x_321 3)))) (= x_322 (select x_12 x_1))) (= x_323 (select x_12 x_2))) (or (not (= x_322 3)) (not (= x_323 3)))) (= x_324 (select x_11 x_1))) (= x_325 (select x_11 x_2))) (or (not (= x_324 3)) (not (= x_325 3)))) (= x_326 (select x_10 x_1))) (= x_327 (select x_10 x_2))) (or (not (= x_326 3)) (not (= x_327 3)))) (= x_328 (select x_9 x_1))) (= x_329 (select x_9 x_2))) (or (not (= x_328 3)) (not (= x_329 3)))) (= x_330 (select x_8 x_1))) (= x_331 (select x_8 x_2))) (or (not (= x_330 3)) (not (= x_331 3)))) (= x_332 (select x_7 x_1))) (= x_333 (select x_7 x_2))) (or (not (= x_332 3)) (not (= x_333 3)))) (= x_334 (select x_6 x_1))) (= x_335 (select x_6 x_2))) (or (not (= x_334 3)) (not (= x_335 3)))) (= x_336 (select x_5 x_1))) (= x_337 (select x_5 x_2))) (or (not (= x_336 3)) (not (= x_337 3)))) (= x_338 (select x_4 x_1))) (= x_339 (select x_4 x_2))) (or (not (= x_338 3)) (not (= x_339 3)))) (= x_340 (select x_3 x_1))) (= x_341 (select x_3 x_2))) (or (not (= x_340 3)) (not (= x_341 3)))) (= x_342 (select x_0 x_1))) (= x_343 (select x_0 x_2))) (or (not (= x_342 3)) (not (= x_343 3)))) (= x_344 (select x_23 x_24))) (= x_25 x_344)) (= x_345 (select x_26 x_27))) (= x_41 x_345)) (= x_346 (select x_42 x_43))) (= x_54 x_346)) (= x_347 (select x_55 x_56))) (= x_67 x_347)) (= x_348 (select x_68 x_69))) (= x_80 x_348)) (= x_349 (select x_81 x_82))) (= x_93 x_349)) (= x_350 (select x_94 x_95))) (= x_106 x_350)) (= x_351 (select x_107 x_108))) (= x_119 x_351)) (= x_352 (select x_120 x_121))) (= x_132 x_352)) (= x_353 (select x_133 x_134))) (= x_145 x_353)) (= x_354 (select x_146 x_147))) (= x_158 x_354)) (= x_355 (select x_159 x_160))) (= x_171 x_355)) (= x_356 (select x_172 x_173))) (= x_184 x_356)) (= x_357 (select x_185 x_186))) (= x_197 x_357)) (= x_358 (select x_198 x_199))) (= x_210 x_358)) (= x_359 (select x_211 x_212))) (= x_223 x_359)) (= x_360 (select x_224 x_225))) (= x_236 x_360)) (= x_361 (select x_237 x_238))) (= x_249 x_361)) (= x_362 (select x_250 x_251))) (= x_262 x_362)) (= x_363 (select x_263 x_264))) (= x_275 x_363)) (= x_364 (select x_276 x_277))) (= x_288 x_364)) (= x_293 (+ x_280 1))) (= x_365 (select x_22 x_295))) (= x_366 (select x_22 x_298))) (= x_367 (select x_22 x_300))) (or (or (or (and (and (and (and (and (and (and (= x_294 0) (= x_292 (+ x_279 1))) ?v_0) ?v_1) (= x_296 x_295)) (= x_365 1)) (= x_297 (store x_22 x_295 2))) (= x_289 (store x_276 x_279 x_295))) (and (and (and (and (and (and (and (and (and (= x_294 1) ?v_2) ?v_0) ?v_1) ?v_3) ?v_4) (= x_299 x_298)) (= x_366 2)) (= x_288 x_298)) (= x_297 (store x_22 x_298 3)))) (and (and (and (and (and (and (and (and (and (= x_294 2) ?v_2) (= x_290 (+ x_277 1))) ?v_1) ?v_3) ?v_4) (= x_301 x_300)) (= x_367 3)) (or (not (<= x_280 12)) (= x_288 x_300))) (= x_297 (store x_22 x_300 1)))) (and (and (and (and (and (= x_294 3) ?v_3) ?v_0) ?v_1) (= x_297 x_22)) ?v_4))) (= x_280 (+ x_267 1))) (= x_368 (select x_21 x_282))) (= x_369 (select x_21 x_284))) (= x_370 (select x_21 x_286))) (or (or (or (and (and (and (and (and (and (and (= x_281 0) (= x_279 (+ x_266 1))) ?v_5) ?v_6) (= x_283 x_282)) (= x_368 1)) (= x_22 (store x_21 x_282 2))) (= x_276 (store x_263 x_266 x_282))) (and (and (and (and (and (and (and (and (and (= x_281 1) ?v_7) ?v_5) ?v_6) ?v_8) ?v_9) (= x_285 x_284)) (= x_369 2)) (= x_275 x_284)) (= x_22 (store x_21 x_284 3)))) (and (and (and (and (and (and (and (and (and (= x_281 2) ?v_7) (= x_277 (+ x_264 1))) ?v_6) ?v_8) ?v_9) (= x_287 x_286)) (= x_370 3)) (or (not (<= x_267 12)) (= x_275 x_286))) (= x_22 (store x_21 x_286 1)))) (and (and (and (and (and (= x_281 3) ?v_8) ?v_5) ?v_6) (= x_22 x_21)) ?v_9))) (= x_267 (+ x_254 1))) (= x_371 (select x_20 x_269))) (= x_372 (select x_20 x_271))) (= x_373 (select x_20 x_273))) (or (or (or (and (and (and (and (and (and (and (= x_268 0) (= x_266 (+ x_253 1))) ?v_10) ?v_11) (= x_270 x_269)) (= x_371 1)) (= x_21 (store x_20 x_269 2))) (= x_263 (store x_250 x_253 x_269))) (and (and (and (and (and (and (and (and (and (= x_268 1) ?v_12) ?v_10) ?v_11) ?v_13) ?v_14) (= x_272 x_271)) (= x_372 2)) (= x_262 x_271)) (= x_21 (store x_20 x_271 3)))) (and (and (and (and (and (and (and (and (and (= x_268 2) ?v_12) (= x_264 (+ x_251 1))) ?v_11) ?v_13) ?v_14) (= x_274 x_273)) (= x_373 3)) (or (not (<= x_254 12)) (= x_262 x_273))) (= x_21 (store x_20 x_273 1)))) (and (and (and (and (and (= x_268 3) ?v_13) ?v_10) ?v_11) (= x_21 x_20)) ?v_14))) (= x_254 (+ x_241 1))) (= x_374 (select x_19 x_256))) (= x_375 (select x_19 x_258))) (= x_376 (select x_19 x_260))) (or (or (or (and (and (and (and (and (and (and (= x_255 0) (= x_253 (+ x_240 1))) ?v_15) ?v_16) (= x_257 x_256)) (= x_374 1)) (= x_20 (store x_19 x_256 2))) (= x_250 (store x_237 x_240 x_256))) (and (and (and (and (and (and (and (and (and (= x_255 1) ?v_17) ?v_15) ?v_16) ?v_18) ?v_19) (= x_259 x_258)) (= x_375 2)) (= x_249 x_258)) (= x_20 (store x_19 x_258 3)))) (and (and (and (and (and (and (and (and (and (= x_255 2) ?v_17) (= x_251 (+ x_238 1))) ?v_16) ?v_18) ?v_19) (= x_261 x_260)) (= x_376 3)) (or (not (<= x_241 12)) (= x_249 x_260))) (= x_20 (store x_19 x_260 1)))) (and (and (and (and (and (= x_255 3) ?v_18) ?v_15) ?v_16) (= x_20 x_19)) ?v_19))) (= x_241 (+ x_228 1))) (= x_377 (select x_18 x_243))) (= x_378 (select x_18 x_245))) (= x_379 (select x_18 x_247))) (or (or (or (and (and (and (and (and (and (and (= x_242 0) (= x_240 (+ x_227 1))) ?v_20) ?v_21) (= x_244 x_243)) (= x_377 1)) (= x_19 (store x_18 x_243 2))) (= x_237 (store x_224 x_227 x_243))) (and (and (and (and (and (and (and (and (and (= x_242 1) ?v_22) ?v_20) ?v_21) ?v_23) ?v_24) (= x_246 x_245)) (= x_378 2)) (= x_236 x_245)) (= x_19 (store x_18 x_245 3)))) (and (and (and (and (and (and (and (and (and (= x_242 2) ?v_22) (= x_238 (+ x_225 1))) ?v_21) ?v_23) ?v_24) (= x_248 x_247)) (= x_379 3)) (or (not (<= x_228 12)) (= x_236 x_247))) (= x_19 (store x_18 x_247 1)))) (and (and (and (and (and (= x_242 3) ?v_23) ?v_20) ?v_21) (= x_19 x_18)) ?v_24))) (= x_228 (+ x_215 1))) (= x_380 (select x_17 x_230))) (= x_381 (select x_17 x_232))) (= x_382 (select x_17 x_234))) (or (or (or (and (and (and (and (and (and (and (= x_229 0) (= x_227 (+ x_214 1))) ?v_25) ?v_26) (= x_231 x_230)) (= x_380 1)) (= x_18 (store x_17 x_230 2))) (= x_224 (store x_211 x_214 x_230))) (and (and (and (and (and (and (and (and (and (= x_229 1) ?v_27) ?v_25) ?v_26) ?v_28) ?v_29) (= x_233 x_232)) (= x_381 2)) (= x_223 x_232)) (= x_18 (store x_17 x_232 3)))) (and (and (and (and (and (and (and (and (and (= x_229 2) ?v_27) (= x_225 (+ x_212 1))) ?v_26) ?v_28) ?v_29) (= x_235 x_234)) (= x_382 3)) (or (not (<= x_215 12)) (= x_223 x_234))) (= x_18 (store x_17 x_234 1)))) (and (and (and (and (and (= x_229 3) ?v_28) ?v_25) ?v_26) (= x_18 x_17)) ?v_29))) (= x_215 (+ x_202 1))) (= x_383 (select x_16 x_217))) (= x_384 (select x_16 x_219))) (= x_385 (select x_16 x_221))) (or (or (or (and (and (and (and (and (and (and (= x_216 0) (= x_214 (+ x_201 1))) ?v_30) ?v_31) (= x_218 x_217)) (= x_383 1)) (= x_17 (store x_16 x_217 2))) (= x_211 (store x_198 x_201 x_217))) (and (and (and (and (and (and (and (and (and (= x_216 1) ?v_32) ?v_30) ?v_31) ?v_33) ?v_34) (= x_220 x_219)) (= x_384 2)) (= x_210 x_219)) (= x_17 (store x_16 x_219 3)))) (and (and (and (and (and (and (and (and (and (= x_216 2) ?v_32) (= x_212 (+ x_199 1))) ?v_31) ?v_33) ?v_34) (= x_222 x_221)) (= x_385 3)) (or (not (<= x_202 12)) (= x_210 x_221))) (= x_17 (store x_16 x_221 1)))) (and (and (and (and (and (= x_216 3) ?v_33) ?v_30) ?v_31) (= x_17 x_16)) ?v_34))) (= x_202 (+ x_189 1))) (= x_386 (select x_15 x_204))) (= x_387 (select x_15 x_206))) (= x_388 (select x_15 x_208))) (or (or (or (and (and (and (and (and (and (and (= x_203 0) (= x_201 (+ x_188 1))) ?v_35) ?v_36) (= x_205 x_204)) (= x_386 1)) (= x_16 (store x_15 x_204 2))) (= x_198 (store x_185 x_188 x_204))) (and (and (and (and (and (and (and (and (and (= x_203 1) ?v_37) ?v_35) ?v_36) ?v_38) ?v_39) (= x_207 x_206)) (= x_387 2)) (= x_197 x_206)) (= x_16 (store x_15 x_206 3)))) (and (and (and (and (and (and (and (and (and (= x_203 2) ?v_37) (= x_199 (+ x_186 1))) ?v_36) ?v_38) ?v_39) (= x_209 x_208)) (= x_388 3)) (or (not (<= x_189 12)) (= x_197 x_208))) (= x_16 (store x_15 x_208 1)))) (and (and (and (and (and (= x_203 3) ?v_38) ?v_35) ?v_36) (= x_16 x_15)) ?v_39))) (= x_189 (+ x_176 1))) (= x_389 (select x_14 x_191))) (= x_390 (select x_14 x_193))) (= x_391 (select x_14 x_195))) (or (or (or (and (and (and (and (and (and (and (= x_190 0) (= x_188 (+ x_175 1))) ?v_40) ?v_41) (= x_192 x_191)) (= x_389 1)) (= x_15 (store x_14 x_191 2))) (= x_185 (store x_172 x_175 x_191))) (and (and (and (and (and (and (and (and (and (= x_190 1) ?v_42) ?v_40) ?v_41) ?v_43) ?v_44) (= x_194 x_193)) (= x_390 2)) (= x_184 x_193)) (= x_15 (store x_14 x_193 3)))) (and (and (and (and (and (and (and (and (and (= x_190 2) ?v_42) (= x_186 (+ x_173 1))) ?v_41) ?v_43) ?v_44) (= x_196 x_195)) (= x_391 3)) (or (not (<= x_176 12)) (= x_184 x_195))) (= x_15 (store x_14 x_195 1)))) (and (and (and (and (and (= x_190 3) ?v_43) ?v_40) ?v_41) (= x_15 x_14)) ?v_44))) (= x_176 (+ x_163 1))) (= x_392 (select x_13 x_178))) (= x_393 (select x_13 x_180))) (= x_394 (select x_13 x_182))) (or (or (or (and (and (and (and (and (and (and (= x_177 0) (= x_175 (+ x_162 1))) ?v_45) ?v_46) (= x_179 x_178)) (= x_392 1)) (= x_14 (store x_13 x_178 2))) (= x_172 (store x_159 x_162 x_178))) (and (and (and (and (and (and (and (and (and (= x_177 1) ?v_47) ?v_45) ?v_46) ?v_48) ?v_49) (= x_181 x_180)) (= x_393 2)) (= x_171 x_180)) (= x_14 (store x_13 x_180 3)))) (and (and (and (and (and (and (and (and (and (= x_177 2) ?v_47) (= x_173 (+ x_160 1))) ?v_46) ?v_48) ?v_49) (= x_183 x_182)) (= x_394 3)) (or (not (<= x_163 12)) (= x_171 x_182))) (= x_14 (store x_13 x_182 1)))) (and (and (and (and (and (= x_177 3) ?v_48) ?v_45) ?v_46) (= x_14 x_13)) ?v_49))) (= x_163 (+ x_150 1))) (= x_395 (select x_12 x_165))) (= x_396 (select x_12 x_167))) (= x_397 (select x_12 x_169))) (or (or (or (and (and (and (and (and (and (and (= x_164 0) (= x_162 (+ x_149 1))) ?v_50) ?v_51) (= x_166 x_165)) (= x_395 1)) (= x_13 (store x_12 x_165 2))) (= x_159 (store x_146 x_149 x_165))) (and (and (and (and (and (and (and (and (and (= x_164 1) ?v_52) ?v_50) ?v_51) ?v_53) ?v_54) (= x_168 x_167)) (= x_396 2)) (= x_158 x_167)) (= x_13 (store x_12 x_167 3)))) (and (and (and (and (and (and (and (and (and (= x_164 2) ?v_52) (= x_160 (+ x_147 1))) ?v_51) ?v_53) ?v_54) (= x_170 x_169)) (= x_397 3)) (or (not (<= x_150 12)) (= x_158 x_169))) (= x_13 (store x_12 x_169 1)))) (and (and (and (and (and (= x_164 3) ?v_53) ?v_50) ?v_51) (= x_13 x_12)) ?v_54))) (= x_150 (+ x_137 1))) (= x_398 (select x_11 x_152))) (= x_399 (select x_11 x_154))) (= x_400 (select x_11 x_156))) (or (or (or (and (and (and (and (and (and (and (= x_151 0) (= x_149 (+ x_136 1))) ?v_55) ?v_56) (= x_153 x_152)) (= x_398 1)) (= x_12 (store x_11 x_152 2))) (= x_146 (store x_133 x_136 x_152))) (and (and (and (and (and (and (and (and (and (= x_151 1) ?v_57) ?v_55) ?v_56) ?v_58) ?v_59) (= x_155 x_154)) (= x_399 2)) (= x_145 x_154)) (= x_12 (store x_11 x_154 3)))) (and (and (and (and (and (and (and (and (and (= x_151 2) ?v_57) (= x_147 (+ x_134 1))) ?v_56) ?v_58) ?v_59) (= x_157 x_156)) (= x_400 3)) (or (not (<= x_137 12)) (= x_145 x_156))) (= x_12 (store x_11 x_156 1)))) (and (and (and (and (and (= x_151 3) ?v_58) ?v_55) ?v_56) (= x_12 x_11)) ?v_59))) (= x_137 (+ x_124 1))) (= x_401 (select x_10 x_139))) (= x_402 (select x_10 x_141))) (= x_403 (select x_10 x_143))) (or (or (or (and (and (and (and (and (and (and (= x_138 0) (= x_136 (+ x_123 1))) ?v_60) ?v_61) (= x_140 x_139)) (= x_401 1)) (= x_11 (store x_10 x_139 2))) (= x_133 (store x_120 x_123 x_139))) (and (and (and (and (and (and (and (and (and (= x_138 1) ?v_62) ?v_60) ?v_61) ?v_63) ?v_64) (= x_142 x_141)) (= x_402 2)) (= x_132 x_141)) (= x_11 (store x_10 x_141 3)))) (and (and (and (and (and (and (and (and (and (= x_138 2) ?v_62) (= x_134 (+ x_121 1))) ?v_61) ?v_63) ?v_64) (= x_144 x_143)) (= x_403 3)) (or (not (<= x_124 12)) (= x_132 x_143))) (= x_11 (store x_10 x_143 1)))) (and (and (and (and (and (= x_138 3) ?v_63) ?v_60) ?v_61) (= x_11 x_10)) ?v_64))) (= x_124 (+ x_111 1))) (= x_404 (select x_9 x_126))) (= x_405 (select x_9 x_128))) (= x_406 (select x_9 x_130))) (or (or (or (and (and (and (and (and (and (and (= x_125 0) (= x_123 (+ x_110 1))) ?v_65) ?v_66) (= x_127 x_126)) (= x_404 1)) (= x_10 (store x_9 x_126 2))) (= x_120 (store x_107 x_110 x_126))) (and (and (and (and (and (and (and (and (and (= x_125 1) ?v_67) ?v_65) ?v_66) ?v_68) ?v_69) (= x_129 x_128)) (= x_405 2)) (= x_119 x_128)) (= x_10 (store x_9 x_128 3)))) (and (and (and (and (and (and (and (and (and (= x_125 2) ?v_67) (= x_121 (+ x_108 1))) ?v_66) ?v_68) ?v_69) (= x_131 x_130)) (= x_406 3)) (or (not (<= x_111 12)) (= x_119 x_130))) (= x_10 (store x_9 x_130 1)))) (and (and (and (and (and (= x_125 3) ?v_68) ?v_65) ?v_66) (= x_10 x_9)) ?v_69))) (= x_111 (+ x_98 1))) (= x_407 (select x_8 x_113))) (= x_408 (select x_8 x_115))) (= x_409 (select x_8 x_117))) (or (or (or (and (and (and (and (and (and (and (= x_112 0) (= x_110 (+ x_97 1))) ?v_70) ?v_71) (= x_114 x_113)) (= x_407 1)) (= x_9 (store x_8 x_113 2))) (= x_107 (store x_94 x_97 x_113))) (and (and (and (and (and (and (and (and (and (= x_112 1) ?v_72) ?v_70) ?v_71) ?v_73) ?v_74) (= x_116 x_115)) (= x_408 2)) (= x_106 x_115)) (= x_9 (store x_8 x_115 3)))) (and (and (and (and (and (and (and (and (and (= x_112 2) ?v_72) (= x_108 (+ x_95 1))) ?v_71) ?v_73) ?v_74) (= x_118 x_117)) (= x_409 3)) (or (not (<= x_98 12)) (= x_106 x_117))) (= x_9 (store x_8 x_117 1)))) (and (and (and (and (and (= x_112 3) ?v_73) ?v_70) ?v_71) (= x_9 x_8)) ?v_74))) (= x_98 (+ x_85 1))) (= x_410 (select x_7 x_100))) (= x_411 (select x_7 x_102))) (= x_412 (select x_7 x_104))) (or (or (or (and (and (and (and (and (and (and (= x_99 0) (= x_97 (+ x_84 1))) ?v_75) ?v_76) (= x_101 x_100)) (= x_410 1)) (= x_8 (store x_7 x_100 2))) (= x_94 (store x_81 x_84 x_100))) (and (and (and (and (and (and (and (and (and (= x_99 1) ?v_77) ?v_75) ?v_76) ?v_78) ?v_79) (= x_103 x_102)) (= x_411 2)) (= x_93 x_102)) (= x_8 (store x_7 x_102 3)))) (and (and (and (and (and (and (and (and (and (= x_99 2) ?v_77) (= x_95 (+ x_82 1))) ?v_76) ?v_78) ?v_79) (= x_105 x_104)) (= x_412 3)) (or (not (<= x_85 12)) (= x_93 x_104))) (= x_8 (store x_7 x_104 1)))) (and (and (and (and (and (= x_99 3) ?v_78) ?v_75) ?v_76) (= x_8 x_7)) ?v_79))) (= x_85 (+ x_72 1))) (= x_413 (select x_6 x_87))) (= x_414 (select x_6 x_89))) (= x_415 (select x_6 x_91))) (or (or (or (and (and (and (and (and (and (and (= x_86 0) (= x_84 (+ x_71 1))) ?v_80) ?v_81) (= x_88 x_87)) (= x_413 1)) (= x_7 (store x_6 x_87 2))) (= x_81 (store x_68 x_71 x_87))) (and (and (and (and (and (and (and (and (and (= x_86 1) ?v_82) ?v_80) ?v_81) ?v_83) ?v_84) (= x_90 x_89)) (= x_414 2)) (= x_80 x_89)) (= x_7 (store x_6 x_89 3)))) (and (and (and (and (and (and (and (and (and (= x_86 2) ?v_82) (= x_82 (+ x_69 1))) ?v_81) ?v_83) ?v_84) (= x_92 x_91)) (= x_415 3)) (or (not (<= x_72 12)) (= x_80 x_91))) (= x_7 (store x_6 x_91 1)))) (and (and (and (and (and (= x_86 3) ?v_83) ?v_80) ?v_81) (= x_7 x_6)) ?v_84))) (= x_72 (+ x_59 1))) (= x_416 (select x_5 x_74))) (= x_417 (select x_5 x_76))) (= x_418 (select x_5 x_78))) (or (or (or (and (and (and (and (and (and (and (= x_73 0) (= x_71 (+ x_58 1))) ?v_85) ?v_86) (= x_75 x_74)) (= x_416 1)) (= x_6 (store x_5 x_74 2))) (= x_68 (store x_55 x_58 x_74))) (and (and (and (and (and (and (and (and (and (= x_73 1) ?v_87) ?v_85) ?v_86) ?v_88) ?v_89) (= x_77 x_76)) (= x_417 2)) (= x_67 x_76)) (= x_6 (store x_5 x_76 3)))) (and (and (and (and (and (and (and (and (and (= x_73 2) ?v_87) (= x_69 (+ x_56 1))) ?v_86) ?v_88) ?v_89) (= x_79 x_78)) (= x_418 3)) (or (not (<= x_59 12)) (= x_67 x_78))) (= x_6 (store x_5 x_78 1)))) (and (and (and (and (and (= x_73 3) ?v_88) ?v_85) ?v_86) (= x_6 x_5)) ?v_89))) (= x_59 (+ x_46 1))) (= x_419 (select x_4 x_61))) (= x_420 (select x_4 x_63))) (= x_421 (select x_4 x_65))) (or (or (or (and (and (and (and (and (and (and (= x_60 0) (= x_58 (+ x_45 1))) ?v_90) ?v_91) (= x_62 x_61)) (= x_419 1)) (= x_5 (store x_4 x_61 2))) (= x_55 (store x_42 x_45 x_61))) (and (and (and (and (and (and (and (and (and (= x_60 1) ?v_92) ?v_90) ?v_91) ?v_93) ?v_94) (= x_64 x_63)) (= x_420 2)) (= x_54 x_63)) (= x_5 (store x_4 x_63 3)))) (and (and (and (and (and (and (and (and (and (= x_60 2) ?v_92) (= x_56 (+ x_43 1))) ?v_91) ?v_93) ?v_94) (= x_66 x_65)) (= x_421 3)) (or (not (<= x_46 12)) (= x_54 x_65))) (= x_5 (store x_4 x_65 1)))) (and (and (and (and (and (= x_60 3) ?v_93) ?v_90) ?v_91) (= x_5 x_4)) ?v_94))) (= x_46 (+ x_32 1))) (= x_422 (select x_3 x_48))) (= x_423 (select x_3 x_50))) (= x_424 (select x_3 x_52))) (or (or (or (and (and (and (and (and (and (and (= x_47 0) (= x_45 (+ x_30 1))) ?v_95) ?v_96) (= x_49 x_48)) (= x_422 1)) (= x_4 (store x_3 x_48 2))) (= x_42 (store x_26 x_30 x_48))) (and (and (and (and (and (and (and (and (and (= x_47 1) ?v_97) ?v_95) ?v_96) ?v_98) ?v_99) (= x_51 x_50)) (= x_423 2)) (= x_41 x_50)) (= x_4 (store x_3 x_50 3)))) (and (and (and (and (and (and (and (and (and (= x_47 2) ?v_97) (= x_43 (+ x_27 1))) ?v_96) ?v_98) ?v_99) (= x_53 x_52)) (= x_424 3)) (or (not (<= x_32 12)) (= x_41 x_52))) (= x_4 (store x_3 x_52 1)))) (and (and (and (and (and (= x_47 3) ?v_98) ?v_95) ?v_96) (= x_4 x_3)) ?v_99))) (= x_32 (+ x_33 1))) (= x_425 (select x_0 x_35))) (= x_426 (select x_0 x_37))) (= x_427 (select x_0 x_39))) (or (or (or (and (and (and (and (and (and (and (= x_34 0) (= x_30 (+ x_31 1))) ?v_100) ?v_101) (= x_36 x_35)) (= x_425 1)) (= x_3 (store x_0 x_35 2))) (= x_26 (store x_23 x_31 x_35))) (and (and (and (and (and (and (and (and (and (= x_34 1) ?v_102) ?v_100) ?v_101) ?v_103) ?v_104) (= x_38 x_37)) (= x_426 2)) (= x_25 x_37)) (= x_3 (store x_0 x_37 3)))) (and (and (and (and (and (and (and (and (and (= x_34 2) ?v_102) (= x_27 (+ x_24 1))) ?v_101) ?v_103) ?v_104) (= x_40 x_39)) (= x_427 3)) (or (not (<= x_33 12)) (= x_25 x_39))) (= x_3 (store x_0 x_39 1)))) (and (and (and (and (and (= x_34 3) ?v_103) ?v_100) ?v_101) (= x_3 x_0)) ?v_104))) (= x_428 (select x_297 x_1))) (= x_428 3)) (= x_429 (select x_297 x_2))) (= x_429 3))))
; --- Injected Array Sum Constraint ---
(assert (sum x_23 (+ x_63 (+ x_290 x_141))))
(assert (sum x_15 (+ x_322 (+ x_27 x_280))))
(assert (sum x_4 (+ x_320 (+ x_424 x_348))))
(check-sat)
(exit)